p cnf 3138
-9 1
-10 2
-11 3
-12 4
-13 5
-14 6
-15 7
-16 8
-17 1
-17 9
-1 -9 17
-18 2
-18 9
-2 -9 18
-19 3
-19 9
-3 -9 19
-20 4
-20 9
-4 -9 20
-21 5
-21 9
-5 -9 21
-22 6
-22 9
-6 -9 22
-23 7
-23 9
-7 -9 23
-24 8
-24 9
-8 -9 24
-25 1
-25 10
-1 -10 25
-26 2
-26 10
-2 -10 26
-27 3
-27 10
-3 -10 27
-28 4
-28 10
-4 -10 28
-29 5
-29 10
-5 -10 29
-30 6
-30 10
-6 -10 30
-31 7
-31 10
-7 -10 31
-32 8
-32 10
-8 -10 32
-33 18
-33 -25
-18 25 33
-34 -18
-34 25
18 -25 34
-35 -33
-35 -34
33 34 35
-36 18
-36 25
-18 -25 36
-37 19
-37 -26
-19 26 37
-38 -19
-38 26
19 -26 38
-39 -37
-39 -38
37 38 39
-40 19
-40 26
-19 -26 40
-41 -36
-41 -39
36 39 41
-42 36
-42 39
-36 -39 42
-43 -41
-43 -42
41 42 43
-44 36
-44 -39
-36 39 44
-45 -40
-45 -44
40 44 45
-46 20
-46 -27
-20 27 46
-47 -20
-47 27
20 -27 47
-48 -46
-48 -47
46 47 48
-49 20
-49 27
-20 -27 49
-50 45
-50 -48
-45 48 50
-51 -45
-51 48
45 -48 51
-52 -50
-52 -51
50 51 52
-53 -45
-53 -48
45 48 53
-54 -49
-54 -53
49 53 54
-55 21
-55 -28
-21 28 55
-56 -21
-56 28
21 -28 56
-57 -55
-57 -56
55 56 57
-58 21
-58 28
-21 -28 58
-59 54
-59 -57
-54 57 59
-60 -54
-60 57
54 -57 60
-61 -59
-61 -60
59 60 61
-62 -54
-62 -57
54 57 62
-63 -58
-63 -62
58 62 63
-64 22
-64 -29
-22 29 64
-65 -22
-65 29
22 -29 65
-66 -64
-66 -65
64 65 66
-67 22
-67 29
-22 -29 67
-68 63
-68 -66
-63 66 68
-69 -63
-69 66
63 -66 69
-70 -68
-70 -69
68 69 70
-71 -63
-71 -66
63 66 71
-72 -67
-72 -71
67 71 72
-73 23
-73 -30
-23 30 73
-74 -23
-74 30
23 -30 74
-75 -73
-75 -74
73 74 75
-76 23
-76 30
-23 -30 76
-77 72
-77 -75
-72 75 77
-78 -72
-78 75
72 -75 78
-79 -77
-79 -78
77 78 79
-80 -72
-80 -75
72 75 80
-81 -76
-81 -80
76 80 81
-82 24
-82 -31
-24 31 82
-83 -24
-83 31
24 -31 83
-84 -82
-84 -83
82 83 84
-85 24
-85 31
-24 -31 85
-86 81
-86 -84
-81 84 86
-87 -81
-87 84
81 -84 87
-88 -86
-88 -87
86 87 88
-89 -81
-89 -84
81 84 89
-90 -85
-90 -89
85 89 90
-91 32
-91 90
-32 -90 91
-92 -32
-92 -90
32 90 92
-93 -91
-93 -92
91 92 93
-94 32
-94 -90
-32 90 94
-95 1
-95 11
-1 -11 95
-96 2
-96 11
-2 -11 96
-97 3
-97 11
-3 -11 97
-98 4
-98 11
-4 -11 98
-99 5
-99 11
-5 -11 99
-100 6
-100 11
-6 -11 100
-101 7
-101 11
-7 -11 101
-102 8
-102 11
-8 -11 102
-103 -43
-103 -95
43 95 103
-104 43
-104 95
-43 -95 104
-105 -103
-105 -104
103 104 105
-106 -43
-106 95
43 -95 106
-107 -52
-107 -96
52 96 107
-108 52
-108 96
-52 -96 108
-109 -107
-109 -108
107 108 109
-110 -52
-110 96
52 -96 110
-111 -106
-111 -109
106 109 111
-112 106
-112 109
-106 -109 112
-113 -111
-113 -112
111 112 113
-114 106
-114 -109
-106 109 114
-115 -110
-115 -114
110 114 115
-116 -61
-116 -97
61 97 116
-117 61
-117 97
-61 -97 117
-118 -116
-118 -117
116 117 118
-119 -61
-119 97
61 -97 119
-120 115
-120 -118
-115 118 120
-121 -115
-121 118
115 -118 121
-122 -120
-122 -121
120 121 122
-123 -115
-123 -118
115 118 123
-124 -119
-124 -123
119 123 124
-125 -70
-125 -98
70 98 125
-126 70
-126 98
-70 -98 126
-127 -125
-127 -126
125 126 127
-128 -70
-128 98
70 -98 128
-129 124
-129 -127
-124 127 129
-130 -124
-130 127
124 -127 130
-131 -129
-131 -130
129 130 131
-132 -124
-132 -127
124 127 132
-133 -128
-133 -132
128 132 133
-134 -79
-134 -99
79 99 134
-135 79
-135 99
-79 -99 135
-136 -134
-136 -135
134 135 136
-137 -79
-137 99
79 -99 137
-138 133
-138 -136
-133 136 138
-139 -133
-139 136
133 -136 139
-140 -138
-140 -139
138 139 140
-141 -133
-141 -136
133 136 141
-142 -137
-142 -141
137 141 142
-143 -88
-143 -100
88 100 143
-144 88
-144 100
-88 -100 144
-145 -143
-145 -144
143 144 145
-146 -88
-146 100
88 -100 146
-147 142
-147 -145
-142 145 147
-148 -142
-148 145
142 -145 148
-149 -147
-149 -148
147 148 149
-150 -142
-150 -145
142 145 150
-151 -146
-151 -150
146 150 151
-152 -93
-152 -101
93 101 152
-153 93
-153 101
-93 -101 153
-154 -152
-154 -153
152 153 154
-155 -93
-155 101
93 -101 155
-156 151
-156 -154
-151 154 156
-157 -151
-157 154
151 -154 157
-158 -156
-158 -157
156 157 158
-159 -151
-159 -154
151 154 159
-160 -155
-160 -159
155 159 160
-161 94
-161 -102
-94 102 161
-162 -94
-162 102
94 -102 162
-163 -161
-163 -162
161 162 163
-164 94
-164 102
-94 -102 164
-165 160
-165 -163
-160 163 165
-166 -160
-166 163
160 -163 166
-167 -165
-167 -166
165 166 167
-168 -160
-168 -163
160 163 168
-169 -164
-169 -168
164 168 169
-170 1
-170 12
-1 -12 170
-171 2
-171 12
-2 -12 171
-172 3
-172 12
-3 -12 172
-173 4
-173 12
-4 -12 173
-174 5
-174 12
-5 -12 174
-175 6
-175 12
-6 -12 175
-176 7
-176 12
-7 -12 176
-177 8
-177 12
-8 -12 177
-178 -113
-178 -170
113 170 178
-179 113
-179 170
-113 -170 179
-180 -178
-180 -179
178 179 180
-181 -113
-181 170
113 -170 181
-182 -122
-182 -171
122 171 182
-183 122
-183 171
-122 -171 183
-184 -182
-184 -183
182 183 184
-185 -122
-185 171
122 -171 185
-186 -181
-186 -184
181 184 186
-187 181
-187 184
-181 -184 187
-188 -186
-188 -187
186 187 188
-189 181
-189 -184
-181 184 189
-190 -185
-190 -189
185 189 190
-191 -131
-191 -172
131 172 191
-192 131
-192 172
-131 -172 192
-193 -191
-193 -192
191 192 193
-194 -131
-194 172
131 -172 194
-195 190
-195 -193
-190 193 195
-196 -190
-196 193
190 -193 196
-197 -195
-197 -196
195 196 197
-198 -190
-198 -193
190 193 198
-199 -194
-199 -198
194 198 199
-200 -140
-200 -173
140 173 200
-201 140
-201 173
-140 -173 201
-202 -200
-202 -201
200 201 202
-203 -140
-203 173
140 -173 203
-204 199
-204 -202
-199 202 204
-205 -199
-205 202
199 -202 205
-206 -204
-206 -205
204 205 206
-207 -199
-207 -202
199 202 207
-208 -203
-208 -207
203 207 208
-209 -149
-209 -174
149 174 209
-210 149
-210 174
-149 -174 210
-211 -209
-211 -210
209 210 211
-212 -149
-212 174
149 -174 212
-213 208
-213 -211
-208 211 213
-214 -208
-214 211
208 -211 214
-215 -213
-215 -214
213 214 215
-216 -208
-216 -211
208 211 216
-217 -212
-217 -216
212 216 217
-218 -158
-218 -175
158 175 218
-219 158
-219 175
-158 -175 219
-220 -218
-220 -219
218 219 220
-221 -158
-221 175
158 -175 221
-222 217
-222 -220
-217 220 222
-223 -217
-223 220
217 -220 223
-224 -222
-224 -223
222 223 224
-225 -217
-225 -220
217 220 225
-226 -221
-226 -225
221 225 226
-227 -167
-227 -176
167 176 227
-228 167
-228 176
-167 -176 228
-229 -227
-229 -228
227 228 229
-230 -167
-230 176
167 -176 230
-231 226
-231 -229
-226 229 231
-232 -226
-232 229
226 -229 232
-233 -231
-233 -232
231 232 233
-234 -226
-234 -229
226 229 234
-235 -230
-235 -234
230 234 235
-236 -169
-236 -177
169 177 236
-237 169
-237 177
-169 -177 237
-238 -236
-238 -237
236 237 238
-239 -169
-239 177
169 -177 239
-240 235
-240 -238
-235 238 240
-241 -235
-241 238
235 -238 241
-242 -240
-242 -241
240 241 242
-243 -235
-243 -238
235 238 243
-244 -239
-244 -243
239 243 244
-245 1
-245 13
-1 -13 245
-246 2
-246 13
-2 -13 246
-247 3
-247 13
-3 -13 247
-248 4
-248 13
-4 -13 248
-249 5
-249 13
-5 -13 249
-250 6
-250 13
-6 -13 250
-251 7
-251 13
-7 -13 251
-252 8
-252 13
-8 -13 252
-253 -188
-253 -245
188 245 253
-254 188
-254 245
-188 -245 254
-255 -253
-255 -254
253 254 255
-256 -188
-256 245
188 -245 256
-257 -197
-257 -246
197 246 257
-258 197
-258 246
-197 -246 258
-259 -257
-259 -258
257 258 259
-260 -197
-260 246
197 -246 260
-261 -256
-261 -259
256 259 261
-262 256
-262 259
-256 -259 262
-263 -261
-263 -262
261 262 263
-264 256
-264 -259
-256 259 264
-265 -260
-265 -264
260 264 265
-266 -206
-266 -247
206 247 266
-267 206
-267 247
-206 -247 267
-268 -266
-268 -267
266 267 268
-269 -206
-269 247
206 -247 269
-270 265
-270 -268
-265 268 270
-271 -265
-271 268
265 -268 271
-272 -270
-272 -271
270 271 272
-273 -265
-273 -268
265 268 273
-274 -269
-274 -273
269 273 274
-275 -215
-275 -248
215 248 275
-276 215
-276 248
-215 -248 276
-277 -275
-277 -276
275 276 277
-278 -215
-278 248
215 -248 278
-279 274
-279 -277
-274 277 279
-280 -274
-280 277
274 -277 280
-281 -279
-281 -280
279 280 281
-282 -274
-282 -277
274 277 282
-283 -278
-283 -282
278 282 283
-284 -224
-284 -249
224 249 284
-285 224
-285 249
-224 -249 285
-286 -284
-286 -285
284 285 286
-287 -224
-287 249
224 -249 287
-288 283
-288 -286
-283 286 288
-289 -283
-289 286
283 -286 289
-290 -288
-290 -289
288 289 290
-291 -283
-291 -286
283 286 291
-292 -287
-292 -291
287 291 292
-293 -233
-293 -250
233 250 293
-294 233
-294 250
-233 -250 294
-295 -293
-295 -294
293 294 295
-296 -233
-296 250
233 -250 296
-297 292
-297 -295
-292 295 297
-298 -292
-298 295
292 -295 298
-299 -297
-299 -298
297 298 299
-300 -292
-300 -295
292 295 300
-301 -296
-301 -300
296 300 301
-302 -242
-302 -251
242 251 302
-303 242
-303 251
-242 -251 303
-304 -302
-304 -303
302 303 304
-305 -242
-305 251
242 -251 305
-306 301
-306 -304
-301 304 306
-307 -301
-307 304
301 -304 307
-308 -306
-308 -307
306 307 308
-309 -301
-309 -304
301 304 309
-310 -305
-310 -309
305 309 310
-311 -244
-311 -252
244 252 311
-312 244
-312 252
-244 -252 312
-313 -311
-313 -312
311 312 313
-314 -244
-314 252
244 -252 314
-315 310
-315 -313
-310 313 315
-316 -310
-316 313
310 -313 316
-317 -315
-317 -316
315 316 317
-318 -310
-318 -313
310 313 318
-319 -314
-319 -318
314 318 319
-320 1
-320 14
-1 -14 320
-321 2
-321 14
-2 -14 321
-322 3
-322 14
-3 -14 322
-323 4
-323 14
-4 -14 323
-324 5
-324 14
-5 -14 324
-325 6
-325 14
-6 -14 325
-326 7
-326 14
-7 -14 326
-327 8
-327 14
-8 -14 327
-328 -263
-328 -320
263 320 328
-329 263
-329 320
-263 -320 329
-330 -328
-330 -329
328 329 330
-331 -263
-331 320
263 -320 331
-332 -272
-332 -321
272 321 332
-333 272
-333 321
-272 -321 333
-334 -332
-334 -333
332 333 334
-335 -272
-335 321
272 -321 335
-336 -331
-336 -334
331 334 336
-337 331
-337 334
-331 -334 337
-338 -336
-338 -337
336 337 338
-339 331
-339 -334
-331 334 339
-340 -335
-340 -339
335 339 340
-341 -281
-341 -322
281 322 341
-342 281
-342 322
-281 -322 342
-343 -341
-343 -342
341 342 343
-344 -281
-344 322
281 -322 344
-345 340
-345 -343
-340 343 345
-346 -340
-346 343
340 -343 346
-347 -345
-347 -346
345 346 347
-348 -340
-348 -343
340 343 348
-349 -344
-349 -348
344 348 349
-350 -290
-350 -323
290 323 350
-351 290
-351 323
-290 -323 351
-352 -350
-352 -351
350 351 352
-353 -290
-353 323
290 -323 353
-354 349
-354 -352
-349 352 354
-355 -349
-355 352
349 -352 355
-356 -354
-356 -355
354 355 356
-357 -349
-357 -352
349 352 357
-358 -353
-358 -357
353 357 358
-359 -299
-359 -324
299 324 359
-360 299
-360 324
-299 -324 360
-361 -359
-361 -360
359 360 361
-362 -299
-362 324
299 -324 362
-363 358
-363 -361
-358 361 363
-364 -358
-364 361
358 -361 364
-365 -363
-365 -364
363 364 365
-366 -358
-366 -361
358 361 366
-367 -362
-367 -366
362 366 367
-368 -308
-368 -325
308 325 368
-369 308
-369 325
-308 -325 369
-370 -368
-370 -369
368 369 370
-371 -308
-371 325
308 -325 371
-372 367
-372 -370
-367 370 372
-373 -367
-373 370
367 -370 373
-374 -372
-374 -373
372 373 374
-375 -367
-375 -370
367 370 375
-376 -371
-376 -375
371 375 376
-377 -317
-377 -326
317 326 377
-378 317
-378 326
-317 -326 378
-379 -377
-379 -378
377 378 379
-380 -317
-380 326
317 -326 380
-381 376
-381 -379
-376 379 381
-382 -376
-382 379
376 -379 382
-383 -381
-383 -382
381 382 383
-384 -376
-384 -379
376 379 384
-385 -380
-385 -384
380 384 385
-386 -319
-386 -327
319 327 386
-387 319
-387 327
-319 -327 387
-388 -386
-388 -387
386 387 388
-389 -319
-389 327
319 -327 389
-390 385
-390 -388
-385 388 390
-391 -385
-391 388
385 -388 391
-392 -390
-392 -391
390 391 392
-393 -385
-393 -388
385 388 393
-394 -389
-394 -393
389 393 394
-395 1
-395 15
-1 -15 395
-396 2
-396 15
-2 -15 396
-397 3
-397 15
-3 -15 397
-398 4
-398 15
-4 -15 398
-399 5
-399 15
-5 -15 399
-400 6
-400 15
-6 -15 400
-401 7
-401 15
-7 -15 401
-402 8
-402 15
-8 -15 402
-403 -338
-403 -395
338 395 403
-404 338
-404 395
-338 -395 404
-405 -403
-405 -404
403 404 405
-406 -338
-406 395
338 -395 406
-407 -347
-407 -396
347 396 407
-408 347
-408 396
-347 -396 408
-409 -407
-409 -408
407 408 409
-410 -347
-410 396
347 -396 410
-411 -406
-411 -409
406 409 411
-412 406
-412 409
-406 -409 412
-413 -411
-413 -412
411 412 413
-414 406
-414 -409
-406 409 414
-415 -410
-415 -414
410 414 415
-416 -356
-416 -397
356 397 416
-417 356
-417 397
-356 -397 417
-418 -416
-418 -417
416 417 418
-419 -356
-419 397
356 -397 419
-420 415
-420 -418
-415 418 420
-421 -415
-421 418
415 -418 421
-422 -420
-422 -421
420 421 422
-423 -415
-423 -418
415 418 423
-424 -419
-424 -423
419 423 424
-425 -365
-425 -398
365 398 425
-426 365
-426 398
-365 -398 426
-427 -425
-427 -426
425 426 427
-428 -365
-428 398
365 -398 428
-429 424
-429 -427
-424 427 429
-430 -424
-430 427
424 -427 430
-431 -429
-431 -430
429 430 431
-432 -424
-432 -427
424 427 432
-433 -428
-433 -432
428 432 433
-434 -374
-434 -399
374 399 434
-435 374
-435 399
-374 -399 435
-436 -434
-436 -435
434 435 436
-437 -374
-437 399
374 -399 437
-438 433
-438 -436
-433 436 438
-439 -433
-439 436
433 -436 439
-440 -438
-440 -439
438 439 440
-441 -433
-441 -436
433 436 441
-442 -437
-442 -441
437 441 442
-443 -383
-443 -400
383 400 443
-444 383
-444 400
-383 -400 444
-445 -443
-445 -444
443 444 445
-446 -383
-446 400
383 -400 446
-447 442
-447 -445
-442 445 447
-448 -442
-448 445
442 -445 448
-449 -447
-449 -448
447 448 449
-450 -442
-450 -445
442 445 450
-451 -446
-451 -450
446 450 451
-452 -392
-452 -401
392 401 452
-453 392
-453 401
-392 -401 453
-454 -452
-454 -453
452 453 454
-455 -392
-455 401
392 -401 455
-456 451
-456 -454
-451 454 456
-457 -451
-457 454
451 -454 457
-458 -456
-458 -457
456 457 458
-459 -451
-459 -454
451 454 459
-460 -455
-460 -459
455 459 460
-461 -394
-461 -402
394 402 461
-462 394
-462 402
-394 -402 462
-463 -461
-463 -462
461 462 463
-464 -394
-464 402
394 -402 464
-465 460
-465 -463
-460 463 465
-466 -460
-466 463
460 -463 466
-467 -465
-467 -466
465 466 467
-468 -460
-468 -463
460 463 468
-469 -464
-469 -468
464 468 469
-470 1
-470 16
-1 -16 470
-471 2
-471 16
-2 -16 471
-472 3
-472 16
-3 -16 472
-473 4
-473 16
-4 -16 473
-474 5
-474 16
-5 -16 474
-475 6
-475 16
-6 -16 475
-476 7
-476 16
-7 -16 476
-477 8
-477 16
-8 -16 477
-478 -413
-478 -470
413 470 478
-479 413
-479 470
-413 -470 479
-480 -478
-480 -479
478 479 480
-481 -413
-481 470
413 -470 481
-482 -422
-482 -471
422 471 482
-483 422
-483 471
-422 -471 483
-484 -482
-484 -483
482 483 484
-485 -422
-485 471
422 -471 485
-486 -481
-486 -484
481 484 486
-487 481
-487 484
-481 -484 487
-488 -486
-488 -487
486 487 488
-489 481
-489 -484
-481 484 489
-490 -485
-490 -489
485 489 490
-491 -431
-491 -472
431 472 491
-492 431
-492 472
-431 -472 492
-493 -491
-493 -492
491 492 493
-494 -431
-494 472
431 -472 494
-495 490
-495 -493
-490 493 495
-496 -490
-496 493
490 -493 496
-497 -495
-497 -496
495 496 497
-498 -490
-498 -493
490 493 498
-499 -494
-499 -498
494 498 499
-500 -440
-500 -473
440 473 500
-501 440
-501 473
-440 -473 501
-502 -500
-502 -501
500 501 502
-503 -440
-503 473
440 -473 503
-504 499
-504 -502
-499 502 504
-505 -499
-505 502
499 -502 505
-506 -504
-506 -505
504 505 506
-507 -499
-507 -502
499 502 507
-508 -503
-508 -507
503 507 508
-509 -449
-509 -474
449 474 509
-510 449
-510 474
-449 -474 510
-511 -509
-511 -510
509 510 511
-512 -449
-512 474
449 -474 512
-513 508
-513 -511
-508 511 513
-514 -508
-514 511
508 -511 514
-515 -513
-515 -514
513 514 515
-516 -508
-516 -511
508 511 516
-517 -512
-517 -516
512 516 517
-518 -458
-518 -475
458 475 518
-519 458
-519 475
-458 -475 519
-520 -518
-520 -519
518 519 520
-521 -458
-521 475
458 -475 521
-522 517
-522 -520
-517 520 522
-523 -517
-523 520
517 -520 523
-524 -522
-524 -523
522 523 524
-525 -517
-525 -520
517 520 525
-526 -521
-526 -525
521 525 526
-527 -467
-527 -476
467 476 527
-528 467
-528 476
-467 -476 528
-529 -527
-529 -528
527 528 529
-530 -467
-530 476
467 -476 530
-531 526
-531 -529
-526 529 531
-532 -526
-532 529
526 -529 532
-533 -531
-533 -532
531 532 533
-534 -526
-534 -529
526 529 534
-535 -530
-535 -534
530 534 535
-536 -469
-536 -477
469 477 536
-537 469
-537 477
-469 -477 537
-538 -536
-538 -537
536 537 538
-539 -469
-539 477
469 -477 539
-540 535
-540 -538
-535 538 540
-541 -535
-541 538
535 -538 541
-542 -540
-542 -541
540 541 542
-543 -535
-543 -538
535 538 543
-544 -539
-544 -543
539 543 544
-545 -26
-545 95
26 -95 545
-546 26
-546 -95
-26 95 546
-547 -545
-547 -546
545 546 547
-548 26
-548 95
-26 -95 548
-549 -36
-549 -547
36 547 549
-550 36
-550 547
-36 -547 550
-551 -549
-551 -550
549 550 551
-552 36
-552 -547
-36 547 552
-553 -548
-553 -552
548 552 553
-554 -96
-554 170
96 -170 554
-555 96
-555 -170
-96 170 555
-556 -554
-556 -555
554 555 556
-557 96
-557 170
-96 -170 557
-558 553
-558 -556
-553 556 558
-559 -553
-559 556
553 -556 559
-560 -558
-560 -559
558 559 560
-561 -553
-561 -556
553 556 561
-562 -557
-562 -561
557 561 562
-563 -171
-563 245
171 -245 563
-564 171
-564 -245
-171 245 564
-565 -563
-565 -564
563 564 565
-566 171
-566 245
-171 -245 566
-567 562
-567 -565
-562 565 567
-568 -562
-568 565
562 -565 568
-569 -567
-569 -568
567 568 569
-570 -562
-570 -565
562 565 570
-571 -566
-571 -570
566 570 571
-572 -246
-572 320
246 -320 572
-573 246
-573 -320
-246 320 573
-574 -572
-574 -573
572 573 574
-575 246
-575 320
-246 -320 575
-576 571
-576 -574
-571 574 576
-577 -571
-577 574
571 -574 577
-578 -576
-578 -577
576 577 578
-579 -571
-579 -574
571 574 579
-580 -575
-580 -579
575 579 580
-581 -321
-581 395
321 -395 581
-582 321
-582 -395
-321 395 582
-583 -581
-583 -582
581 582 583
-584 321
-584 395
-321 -395 584
-585 580
-585 -583
-580 583 585
-586 -580
-586 583
580 -583 586
-587 -585
-587 -586
585 586 587
-588 -580
-588 -583
580 583 588
-589 -584
-589 -588
584 588 589
-590 -396
-590 470
396 -470 590
-591 396
-591 -470
-396 470 591
-592 -590
-592 -591
590 591 592
-593 396
-593 470
-396 -470 593
-594 589
-594 -592
-589 592 594
-595 -589
-595 592
589 -592 595
-596 -594
-596 -595
594 595 596
-597 -589
-597 -592
589 592 597
-598 -593
-598 -597
593 597 598
-599 471
-599 598
-471 -598 599
-600 -471
-600 -598
471 598 600
-601 -599
-601 -600
599 600 601
-602 471
-602 -598
-471 598 602
-603 -19
-603 -551
19 551 603
-604 19
-604 551
-19 -551 604
-605 -603
-605 -604
603 604 605
-606 19
-606 -551
-19 551 606
-607 -27
-607 -560
27 560 607
-608 27
-608 560
-27 -560 608
-609 -607
-609 -608
607 608 609
-610 27
-610 -560
-27 560 610
-611 -606
-611 -609
606 609 611
-612 606
-612 609
-606 -609 612
-613 -611
-613 -612
611 612 613
-614 606
-614 -609
-606 609 614
-615 -610
-615 -614
610 614 615
-616 -97
-616 -569
97 569 616
-617 97
-617 569
-97 -569 617
-618 -616
-618 -617
616 617 618
-619 97
-619 -569
-97 569 619
-620 615
-620 -618
-615 618 620
-621 -615
-621 618
615 -618 621
-622 -620
-622 -621
620 621 622
-623 -615
-623 -618
615 618 623
-624 -619
-624 -623
619 623 624
-625 -172
-625 -578
172 578 625
-626 172
-626 578
-172 -578 626
-627 -625
-627 -626
625 626 627
-628 172
-628 -578
-172 578 628
-629 624
-629 -627
-624 627 629
-630 -624
-630 627
624 -627 630
-631 -629
-631 -630
629 630 631
-632 -624
-632 -627
624 627 632
-633 -628
-633 -632
628 632 633
-634 -247
-634 -587
247 587 634
-635 247
-635 587
-247 -587 635
-636 -634
-636 -635
634 635 636
-637 247
-637 -587
-247 587 637
-638 633
-638 -636
-633 636 638
-639 -633
-639 636
633 -636 639
-640 -638
-640 -639
638 639 640
-641 -633
-641 -636
633 636 641
-642 -637
-642 -641
637 641 642
-643 -322
-643 -596
322 596 643
-644 322
-644 596
-322 -596 644
-645 -643
-645 -644
643 644 645
-646 322
-646 -596
-322 596 646
-647 642
-647 -645
-642 645 647
-648 -642
-648 645
642 -645 648
-649 -647
-649 -648
647 648 649
-650 -642
-650 -645
642 645 650
-651 -646
-651 -650
646 650 651
-652 -397
-652 -601
397 601 652
-653 397
-653 601
-397 -601 653
-654 -652
-654 -653
652 653 654
-655 397
-655 -601
-397 601 655
-656 651
-656 -654
-651 654 656
-657 -651
-657 654
651 -654 657
-658 -656
-658 -657
656 657 658
-659 -651
-659 -654
651 654 659
-660 -655
-660 -659
655 659 660
-661 -472
-661 602
472 -602 661
-662 472
-662 -602
-472 602 662
-663 -661
-663 -662
661 662 663
-664 472
-664 602
-472 -602 664
-665 660
-665 -663
-660 663 665
-666 -660
-666 663
660 -663 666
-667 -665
-667 -666
665 666 667
-668 -660
-668 -663
660 663 668
-669 -664
-669 -668
664 668 669
-670 -20
-670 -613
20 613 670
-671 20
-671 613
-20 -613 671
-672 -670
-672 -671
670 671 672
-673 20
-673 -613
-20 613 673
-674 -28
-674 -622
28 622 674
-675 28
-675 622
-28 -622 675
-676 -674
-676 -675
674 675 676
-677 28
-677 -622
-28 622 677
-678 -673
-678 -676
673 676 678
-679 673
-679 676
-673 -676 679
-680 -678
-680 -679
678 679 680
-681 673
-681 -676
-673 676 681
-682 -677
-682 -681
677 681 682
-683 -98
-683 -631
98 631 683
-684 98
-684 631
-98 -631 684
-685 -683
-685 -684
683 684 685
-686 98
-686 -631
-98 631 686
-687 682
-687 -685
-682 685 687
-688 -682
-688 685
682 -685 688
-689 -687
-689 -688
687 688 689
-690 -682
-690 -685
682 685 690
-691 -686
-691 -690
686 690 691
-692 -173
-692 -640
173 640 692
-693 173
-693 640
-173 -640 693
-694 -692
-694 -693
692 693 694
-695 173
-695 -640
-173 640 695
-696 691
-696 -694
-691 694 696
-697 -691
-697 694
691 -694 697
-698 -696
-698 -697
696 697 698
-699 -691
-699 -694
691 694 699
-700 -695
-700 -699
695 699 700
-701 -248
-701 -649
248 649 701
-702 248
-702 649
-248 -649 702
-703 -701
-703 -702
701 702 703
-704 248
-704 -649
-248 649 704
-705 700
-705 -703
-700 703 705
-706 -700
-706 703
700 -703 706
-707 -705
-707 -706
705 706 707
-708 -700
-708 -703
700 703 708
-709 -704
-709 -708
704 708 709
-710 -323
-710 -658
323 658 710
-711 323
-711 658
-323 -658 711
-712 -710
-712 -711
710 711 712
-713 323
-713 -658
-323 658 713
-714 709
-714 -712
-709 712 714
-715 -709
-715 712
709 -712 715
-716 -714
-716 -715
714 715 716
-717 -709
-717 -712
709 712 717
-718 -713
-718 -717
713 717 718
-719 -398
-719 -667
398 667 719
-720 398
-720 667
-398 -667 720
-721 -719
-721 -720
719 720 721
-722 398
-722 -667
-398 667 722
-723 718
-723 -721
-718 721 723
-724 -718
-724 721
718 -721 724
-725 -723
-725 -724
723 724 725
-726 -718
-726 -721
718 721 726
-727 -722
-727 -726
722 726 727
-728 -473
-728 -669
473 669 728
-729 473
-729 669
-473 -669 729
-730 -728
-730 -729
728 729 730
-731 473
-731 -669
-473 669 731
-732 727
-732 -730
-727 730 732
-733 -727
-733 730
727 -730 733
-734 -732
-734 -733
732 733 734
-735 -727
-735 -730
727 730 735
-736 -731
-736 -735
731 735 736
-737 -21
-737 -680
21 680 737
-738 21
-738 680
-21 -680 738
-739 -737
-739 -738
737 738 739
-740 21
-740 -680
-21 680 740
-741 -29
-741 -689
29 689 741
-742 29
-742 689
-29 -689 742
-743 -741
-743 -742
741 742 743
-744 29
-744 -689
-29 689 744
-745 -740
-745 -743
740 743 745
-746 740
-746 743
-740 -743 746
-747 -745
-747 -746
745 746 747
-748 740
-748 -743
-740 743 748
-749 -744
-749 -748
744 748 749
-750 -99
-750 -698
99 698 750
-751 99
-751 698
-99 -698 751
-752 -750
-752 -751
750 751 752
-753 99
-753 -698
-99 698 753
-754 749
-754 -752
-749 752 754
-755 -749
-755 752
749 -752 755
-756 -754
-756 -755
754 755 756
-757 -749
-757 -752
749 752 757
-758 -753
-758 -757
753 757 758
-759 -174
-759 -707
174 707 759
-760 174
-760 707
-174 -707 760
-761 -759
-761 -760
759 760 761
-762 174
-762 -707
-174 707 762
-763 758
-763 -761
-758 761 763
-764 -758
-764 761
758 -761 764
-765 -763
-765 -764
763 764 765
-766 -758
-766 -761
758 761 766
-767 -762
-767 -766
762 766 767
-768 -249
-768 -716
249 716 768
-769 249
-769 716
-249 -716 769
-770 -768
-770 -769
768 769 770
-771 249
-771 -716
-249 716 771
-772 767
-772 -770
-767 770 772
-773 -767
-773 770
767 -770 773
-774 -772
-774 -773
772 773 774
-775 -767
-775 -770
767 770 775
-776 -771
-776 -775
771 775 776
-777 -324
-777 -725
324 725 777
-778 324
-778 725
-324 -725 778
-779 -777
-779 -778
777 778 779
-780 324
-780 -725
-324 725 780
-781 776
-781 -779
-776 779 781
-782 -776
-782 779
776 -779 782
-783 -781
-783 -782
781 782 783
-784 -776
-784 -779
776 779 784
-785 -780
-785 -784
780 784 785
-786 -399
-786 -734
399 734 786
-787 399
-787 734
-399 -734 787
-788 -786
-788 -787
786 787 788
-789 399
-789 -734
-399 734 789
-790 785
-790 -788
-785 788 790
-791 -785
-791 788
785 -788 791
-792 -790
-792 -791
790 791 792
-793 -785
-793 -788
785 788 793
-794 -789
-794 -793
789 793 794
-795 -474
-795 -736
474 736 795
-796 474
-796 736
-474 -736 796
-797 -795
-797 -796
795 796 797
-798 474
-798 -736
-474 736 798
-799 794
-799 -797
-794 797 799
-800 -794
-800 797
794 -797 800
-801 -799
-801 -800
799 800 801
-802 -794
-802 -797
794 797 802
-803 -798
-803 -802
798 802 803
-804 -22
-804 -747
22 747 804
-805 22
-805 747
-22 -747 805
-806 -804
-806 -805
804 805 806
-807 22
-807 -747
-22 747 807
-808 -30
-808 -756
30 756 808
-809 30
-809 756
-30 -756 809
-810 -808
-810 -809
808 809 810
-811 30
-811 -756
-30 756 811
-812 -807
-812 -810
807 810 812
-813 807
-813 810
-807 -810 813
-814 -812
-814 -813
812 813 814
-815 807
-815 -810
-807 810 815
-816 -811
-816 -815
811 815 816
-817 -100
-817 -765
100 765 817
-818 100
-818 765
-100 -765 818
-819 -817
-819 -818
817 818 819
-820 100
-820 -765
-100 765 820
-821 816
-821 -819
-816 819 821
-822 -816
-822 819
816 -819 822
-823 -821
-823 -822
821 822 823
-824 -816
-824 -819
816 819 824
-825 -820
-825 -824
820 824 825
-826 -175
-826 -774
175 774 826
-827 175
-827 774
-175 -774 827
-828 -826
-828 -827
826 827 828
-829 175
-829 -774
-175 774 829
-830 825
-830 -828
-825 828 830
-831 -825
-831 828
825 -828 831
-832 -830
-832 -831
830 831 832
-833 -825
-833 -828
825 828 833
-834 -829
-834 -833
829 833 834
-835 -250
-835 -783
250 783 835
-836 250
-836 783
-250 -783 836
-837 -835
-837 -836
835 836 837
-838 250
-838 -783
-250 783 838
-839 834
-839 -837
-834 837 839
-840 -834
-840 837
834 -837 840
-841 -839
-841 -840
839 840 841
-842 -834
-842 -837
834 837 842
-843 -838
-843 -842
838 842 843
-844 -325
-844 -792
325 792 844
-845 325
-845 792
-325 -792 845
-846 -844
-846 -845
844 845 846
-847 325
-847 -792
-325 792 847
-848 843
-848 -846
-843 846 848
-849 -843
-849 846
843 -846 849
-850 -848
-850 -849
848 849 850
-851 -843
-851 -846
843 846 851
-852 -847
-852 -851
847 851 852
-853 -400
-853 -801
400 801 853
-854 400
-854 801
-400 -801 854
-855 -853
-855 -854
853 854 855
-856 400
-856 -801
-400 801 856
-857 852
-857 -855
-852 855 857
-858 -852
-858 855
852 -855 858
-859 -857
-859 -858
857 858 859
-860 -852
-860 -855
852 855 860
-861 -856
-861 -860
856 860 861
-862 -475
-862 -803
475 803 862
-863 475
-863 803
-475 -803 863
-864 -862
-864 -863
862 863 864
-865 475
-865 -803
-475 803 865
-866 861
-866 -864
-861 864 866
-867 -861
-867 864
861 -864 867
-868 -866
-868 -867
866 867 868
-869 -861
-869 -864
861 864 869
-870 -865
-870 -869
865 869 870
-871 -23
-871 -814
23 814 871
-872 23
-872 814
-23 -814 872
-873 -871
-873 -872
871 872 873
-874 23
-874 -814
-23 814 874
-875 -31
-875 -823
31 823 875
-876 31
-876 823
-31 -823 876
-877 -875
-877 -876
875 876 877
-878 31
-878 -823
-31 823 878
-879 -874
-879 -877
874 877 879
-880 874
-880 877
-874 -877 880
-881 -879
-881 -880
879 880 881
-882 874
-882 -877
-874 877 882
-883 -878
-883 -882
878 882 883
-884 -101
-884 -832
101 832 884
-885 101
-885 832
-101 -832 885
-886 -884
-886 -885
884 885 886
-887 101
-887 -832
-101 832 887
-888 883
-888 -886
-883 886 888
-889 -883
-889 886
883 -886 889
-890 -888
-890 -889
888 889 890
-891 -883
-891 -886
883 886 891
-892 -887
-892 -891
887 891 892
-893 -176
-893 -841
176 841 893
-894 176
-894 841
-176 -841 894
-895 -893
-895 -894
893 894 895
-896 176
-896 -841
-176 841 896
-897 892
-897 -895
-892 895 897
-898 -892
-898 895
892 -895 898
-899 -897
-899 -898
897 898 899
-900 -892
-900 -895
892 895 900
-901 -896
-901 -900
896 900 901
-902 -251
-902 -850
251 850 902
-903 251
-903 850
-251 -850 903
-904 -902
-904 -903
902 903 904
-905 251
-905 -850
-251 850 905
-906 901
-906 -904
-901 904 906
-907 -901
-907 904
901 -904 907
-908 -906
-908 -907
906 907 908
-909 -901
-909 -904
901 904 909
-910 -905
-910 -909
905 909 910
-911 -326
-911 -859
326 859 911
-912 326
-912 859
-326 -859 912
-913 -911
-913 -912
911 912 913
-914 326
-914 -859
-326 859 914
-915 910
-915 -913
-910 913 915
-916 -910
-916 913
910 -913 916
-917 -915
-917 -916
915 916 917
-918 -910
-918 -913
910 913 918
-919 -914
-919 -918
914 918 919
-920 -401
-920 -868
401 868 920
-921 401
-921 868
-401 -868 921
-922 -920
-922 -921
920 921 922
-923 401
-923 -868
-401 868 923
-924 919
-924 -922
-919 922 924
-925 -919
-925 922
919 -922 925
-926 -924
-926 -925
924 925 926
-927 -919
-927 -922
919 922 927
-928 -923
-928 -927
923 927 928
-929 -476
-929 -870
476 870 929
-930 476
-930 870
-476 -870 930
-931 -929
-931 -930
929 930 931
-932 476
-932 -870
-476 870 932
-933 928
-933 -931
-928 931 933
-934 -928
-934 931
928 -931 934
-935 -933
-935 -934
933 934 935
-936 -928
-936 -931
928 931 936
-937 -932
-937 -936
932 936 937
-938 -24
-938 -881
24 881 938
-939 24
-939 881
-24 -881 939
-940 -938
-940 -939
938 939 940
-941 24
-941 -881
-24 881 941
-942 -32
-942 -890
32 890 942
-943 32
-943 890
-32 -890 943
-944 -942
-944 -943
942 943 944
-945 32
-945 -890
-32 890 945
-946 -941
-946 -944
941 944 946
-947 941
-947 944
-941 -944 947
-948 -946
-948 -947
946 947 948
-949 941
-949 -944
-941 944 949
-950 -945
-950 -949
945 949 950
-951 -102
-951 -899
102 899 951
-952 102
-952 899
-102 -899 952
-953 -951
-953 -952
951 952 953
-954 102
-954 -899
-102 899 954
-955 950
-955 -953
-950 953 955
-956 -950
-956 953
950 -953 956
-957 -955
-957 -956
955 956 957
-958 -950
-958 -953
950 953 958
-959 -954
-959 -958
954 958 959
-960 -177
-960 -908
177 908 960
-961 177
-961 908
-177 -908 961
-962 -960
-962 -961
960 961 962
-963 177
-963 -908
-177 908 963
-964 959
-964 -962
-959 962 964
-965 -959
-965 962
959 -962 965
-966 -964
-966 -965
964 965 966
-967 -959
-967 -962
959 962 967
-968 -963
-968 -967
963 967 968
-969 -252
-969 -917
252 917 969
-970 252
-970 917
-252 -917 970
-971 -969
-971 -970
969 970 971
-972 252
-972 -917
-252 917 972
-973 968
-973 -971
-968 971 973
-974 -968
-974 971
968 -971 974
-975 -973
-975 -974
973 974 975
-976 -968
-976 -971
968 971 976
-977 -972
-977 -976
972 976 977
-978 -327
-978 -926
327 926 978
-979 327
-979 926
-327 -926 979
-980 -978
-980 -979
978 979 980
-981 327
-981 -926
-327 926 981
-982 977
-982 -980
-977 980 982
-983 -977
-983 980
977 -980 983
-984 -982
-984 -983
982 983 984
-985 -977
-985 -980
977 980 985
-986 -981
-986 -985
981 985 986
-987 -402
-987 -935
402 935 987
-988 402
-988 935
-402 -935 988
-989 -987
-989 -988
987 988 989
-990 402
-990 -935
-402 935 990
-991 986
-991 -989
-986 989 991
-992 -986
-992 989
986 -989 992
-993 -991
-993 -992
991 992 993
-994 -986
-994 -989
986 989 994
-995 -990
-995 -994
990 994 995
-996 -477
-996 -937
477 937 996
-997 477
-997 937
-477 -937 997
-998 -996
-998 -997
996 997 998
-999 477
-999 -937
-477 937 999
-1000 995
-1000 -998
-995 998 1000
-1001 -995
-1001 998
995 -998 1001
-1002 -1000
-1002 -1001
1000 1001 1002
-1003 -995
-1003 -998
995 998 1003
-1004 -999
-1004 -1003
999 1003 1004
-1005 -105
-1005 605
105 -605 1005
-1006 105
-1006 -605
-105 605 1006
-1007 -1005
-1007 -1006
1005 1006 1007
-1008 -180
-1008 672
180 -672 1008
-1009 180
-1009 -672
-180 672 1009
-1010 -1008
-1010 -1009
1008 1009 1010
-1011 -255
-1011 739
255 -739 1011
-1012 255
-1012 -739
-255 739 1012
-1013 -1011
-1013 -1012
1011 1012 1013
-1014 -330
-1014 806
330 -806 1014
-1015 330
-1015 -806
-330 806 1015
-1016 -1014
-1016 -1015
1014 1015 1016
-1017 -405
-1017 873
405 -873 1017
-1018 405
-1018 -873
-405 873 1018
-1019 -1017
-1019 -1018
1017 1018 1019
-1020 -480
-1020 940
480 -940 1020
-1021 480
-1021 -940
-480 940 1021
-1022 -1020
-1022 -1021
1020 1021 1022
-1023 -488
-1023 948
488 -948 1023
-1024 488
-1024 -948
-488 948 1024
-1025 -1023
-1025 -1024
1023 1024 1025
-1026 -497
-1026 957
497 -957 1026
-1027 497
-1027 -957
-497 957 1027
-1028 -1026
-1028 -1027
1026 1027 1028
-1029 -506
-1029 966
506 -966 1029
-1030 506
-1030 -966
-506 966 1030
-1031 -1029
-1031 -1030
1029 1030 1031
-1032 -515
-1032 975
515 -975 1032
-1033 515
-1033 -975
-515 975 1033
-1034 -1032
-1034 -1033
1032 1033 1034
-1035 -524
-1035 984
524 -984 1035
-1036 524
-1036 -984
-524 984 1036
-1037 -1035
-1037 -1036
1035 1036 1037
-1038 -533
-1038 993
533 -993 1038
-1039 533
-1039 -993
-533 993 1039
-1040 -1038
-1040 -1039
1038 1039 1040
-1041 -542
-1041 1002
542 -1002 1041
-1042 542
-1042 -1002
-542 1002 1042
-1043 -1041
-1043 -1042
1041 1042 1043
-1044 -544
-1044 1004
544 -1004 1044
-1045 544
-1045 -1004
-544 1004 1045
-1046 -1044
-1046 -1045
1044 1045 1046
-1047 1007
-1047 1010
-1007 -1010 1047
-1048 1013
-1048 1016
-1013 -1016 1048
-1049 1019
-1049 1022
-1019 -1022 1049
-1050 1025
-1050 1028
-1025 -1028 1050
-1051 1031
-1051 1034
-1031 -1034 1051
-1052 1037
-1052 1040
-1037 -1040 1052
-1053 1043
-1053 1046
-1043 -1046 1053
-1054 1048
-1054 1049
-1048 -1049 1054
-1055 1050
-1055 1051
-1050 -1051 1055
-1056 1052
-1056 1053
-1052 -1053 1056
-1057 1047
-1057 1054
-1047 -1054 1057
-1058 1055
-1058 1056
-1055 -1056 1058
-1059 1057
-1059 1058
-1057 -1058 1059
-1059
